(set-logic QF_UF)
(declare-fun A0 () Bool)
(declare-fun A1 () Bool)
(declare-fun A2 () Bool)
(declare-fun A3 () Bool)
(declare-fun A4 () Bool)
(declare-fun A5 () Bool)
(declare-fun A6 () Bool)
(declare-fun A7 () Bool)
(declare-fun A8 () Bool)
(declare-fun A9 () Bool)
(declare-fun A10 () Bool)
(declare-fun A11 () Bool)
(declare-fun A12 () Bool)
(declare-fun A13 () Bool)
(declare-fun A14 () Bool)
(declare-fun A15 () Bool)
(declare-fun A16 () Bool)
(declare-fun A17 () Bool)
(declare-fun A18 () Bool)
(declare-fun A19 () Bool)
(declare-fun A20 () Bool)
(declare-fun A21 () Bool)
(declare-fun A22 () Bool)
(declare-fun A23 () Bool)
(declare-fun A24 () Bool)
(assert (let ((.def_0 (not A0))) (let ((.def_1 (= .def_0 A17))) (let ((.def_2 (or A11 A11))) (let ((.def_3 (not .def_2))) (let ((.def_4 (and .def_3 .def_1))) (let ((.def_5 (not .def_4))) (let ((.def_6 (not A19))) (let ((.def_7 (or A16 .def_6))) (let ((.def_8 (not .def_7))) (let ((.def_9 (not A22))) (let ((.def_10 (or A2 .def_9))) (let ((.def_11 (and .def_10 .def_8))) (let ((.def_12 (not .def_11))) (let ((.def_13 (or .def_12 .def_5))) (let ((.def_14 (not A24))) (let ((.def_15 (= .def_14 .def_0))) (let ((.def_16 (not A21))) (let ((.def_17 (and A10 .def_16))) (let ((.def_18 (not .def_17))) (let ((.def_19 (= .def_18 .def_15))) (let ((.def_20 (or A11 A7))) (let ((.def_21 (= A23 A1))) (let ((.def_22 (not .def_21))) (let ((.def_23 (and .def_22 .def_20))) (let ((.def_24 (or .def_23 .def_19))) (let ((.def_25 (or .def_24 .def_13))) (let ((.def_26 (not A16))) (let ((.def_27 (not A14))) (let ((.def_28 (and .def_27 .def_26))) (let ((.def_29 (not A17))) (let ((.def_30 (and A1 .def_29))) (let ((.def_31 (or .def_30 .def_28))) (let ((.def_32 (not .def_31))) (let ((.def_33 (and A11 .def_6))) (let ((.def_34 (not A11))) (let ((.def_35 (and .def_14 .def_34))) (let ((.def_36 (not .def_35))) (let ((.def_37 (and .def_36 .def_33))) (let ((.def_38 (or .def_37 .def_32))) (let ((.def_39 (not .def_38))) (let ((.def_40 (and .def_14 A4))) (let ((.def_41 (not A8))) (let ((.def_42 (not A7))) (let ((.def_43 (or .def_42 .def_41))) (let ((.def_44 (not .def_43))) (let ((.def_45 (and .def_44 .def_40))) (let ((.def_46 (not A6))) (let ((.def_47 (or .def_9 .def_46))) (let ((.def_48 (not .def_47))) (let ((.def_49 (or A20 A2))) (let ((.def_50 (not .def_49))) (let ((.def_51 (or .def_50 .def_48))) (let ((.def_52 (or .def_51 .def_45))) (let ((.def_53 (and .def_52 .def_39))) (let ((.def_54 (not .def_53))) (let ((.def_55 (and .def_54 .def_25))) (let ((.def_56 (not .def_55))) (let ((.def_57 (and A2 A0))) (let ((.def_58 (not .def_57))) (let ((.def_59 (not A5))) (let ((.def_60 (= .def_59 A20))) (let ((.def_61 (not .def_60))) (let ((.def_62 (or .def_61 .def_58))) (let ((.def_63 (not .def_62))) (let ((.def_64 (and A6 A20))) (let ((.def_65 (not A23))) (let ((.def_66 (or .def_65 A7))) (let ((.def_67 (not .def_66))) (let ((.def_68 (or .def_67 .def_64))) (let ((.def_69 (and .def_68 .def_63))) (let ((.def_70 (not .def_69))) (let ((.def_71 (not A3))) (let ((.def_72 (or A17 .def_71))) (let ((.def_73 (or A22 .def_16))) (let ((.def_74 (or .def_73 .def_72))) (let ((.def_75 (and .def_71 .def_9))) (let ((.def_76 (not .def_75))) (let ((.def_77 (and .def_46 A6))) (let ((.def_78 (and .def_77 .def_76))) (let ((.def_79 (not .def_78))) (let ((.def_80 (or .def_79 .def_74))) (let ((.def_81 (and .def_80 .def_70))) (let ((.def_82 (not A15))) (let ((.def_83 (or A19 .def_82))) (let ((.def_84 (not A4))) (let ((.def_85 (and .def_84 A20))) (let ((.def_86 (or .def_85 .def_83))) (let ((.def_87 (not .def_86))) (let ((.def_88 (not A20))) (let ((.def_89 (or .def_88 .def_41))) (let ((.def_90 (not .def_89))) (let ((.def_91 (and .def_6 A21))) (let ((.def_92 (not .def_91))) (let ((.def_93 (= .def_92 .def_90))) (let ((.def_94 (not .def_93))) (let ((.def_95 (or .def_94 .def_87))) (let ((.def_96 (not .def_95))) (let ((.def_97 (or .def_34 A22))) (let ((.def_98 (and A9 A15))) (let ((.def_99 (not .def_98))) (let ((.def_100 (or .def_99 .def_97))) (let ((.def_101 (not .def_100))) (let ((.def_102 (not A2))) (let ((.def_103 (not A10))) (let ((.def_104 (and .def_103 .def_102))) (let ((.def_105 (not .def_104))) (let ((.def_106 (and .def_9 .def_46))) (let ((.def_107 (not .def_106))) (let ((.def_108 (and .def_107 .def_105))) (let ((.def_109 (or .def_108 .def_101))) (let ((.def_110 (and .def_109 .def_96))) (let ((.def_111 (and .def_110 .def_81))) (let ((.def_112 (and .def_111 .def_56))) (let ((.def_113 (not .def_112))) (let ((.def_114 (and A1 .def_82))) (let ((.def_115 (not .def_114))) (let ((.def_116 (or .def_84 .def_27))) (let ((.def_117 (not .def_116))) (let ((.def_118 (and .def_117 .def_115))) (let ((.def_119 (or A16 A11))) (let ((.def_120 (not .def_119))) (let ((.def_121 (or .def_102 .def_26))) (let ((.def_122 (not .def_121))) (let ((.def_123 (or .def_122 .def_120))) (let ((.def_124 (or .def_123 .def_118))) (let ((.def_125 (not .def_124))) (let ((.def_126 (not A9))) (let ((.def_127 (and A7 .def_126))) (let ((.def_128 (not .def_127))) (let ((.def_129 (not A12))) (let ((.def_130 (or .def_65 .def_129))) (let ((.def_131 (and .def_130 .def_128))) (let ((.def_132 (not .def_131))) (let ((.def_133 (= .def_65 .def_14))) (let ((.def_134 (or A0 .def_59))) (let ((.def_135 (not .def_134))) (let ((.def_136 (or .def_135 .def_133))) (let ((.def_137 (not .def_136))) (let ((.def_138 (and .def_137 .def_132))) (let ((.def_139 (or .def_138 .def_125))) (let ((.def_140 (or .def_65 .def_9))) (let ((.def_141 (not .def_140))) (let ((.def_142 (or A12 A0))) (let ((.def_143 (and .def_142 .def_141))) (let ((.def_144 (and A22 A0))) (let ((.def_145 (and .def_42 A9))) (let ((.def_146 (not .def_145))) (let ((.def_147 (or .def_146 .def_144))) (let ((.def_148 (not .def_147))) (let ((.def_149 (or .def_148 .def_143))) (let ((.def_150 (and A6 A2))) (let ((.def_151 (and .def_46 A12))) (let ((.def_152 (and .def_151 .def_150))) (let ((.def_153 (not .def_152))) (let ((.def_154 (or A15 .def_71))) (let ((.def_155 (not .def_154))) (let ((.def_156 (not A1))) (let ((.def_157 (and .def_156 A7))) (let ((.def_158 (or .def_157 .def_155))) (let ((.def_159 (or .def_158 .def_153))) (let ((.def_160 (not .def_159))) (let ((.def_161 (= .def_160 .def_149))) (let ((.def_162 (or .def_161 .def_139))) (let ((.def_163 (and A4 .def_42))) (let ((.def_164 (or .def_16 .def_41))) (let ((.def_165 (or .def_164 .def_163))) (let ((.def_166 (= A18 A11))) (let ((.def_167 (or A4 .def_71))) (let ((.def_168 (= .def_167 .def_166))) (let ((.def_169 (or .def_168 .def_165))) (let ((.def_170 (and A20 A11))) (let ((.def_171 (or A4 .def_42))) (let ((.def_172 (not .def_171))) (let ((.def_173 (or .def_172 .def_170))) (let ((.def_174 (or .def_71 .def_29))) (let ((.def_175 (or .def_41 A9))) (let ((.def_176 (and .def_175 .def_174))) (let ((.def_177 (not .def_176))) (let ((.def_178 (or .def_177 .def_173))) (let ((.def_179 (not .def_178))) (let ((.def_180 (and .def_179 .def_169))) (let ((.def_181 (not .def_180))) (let ((.def_182 (and A16 A12))) (let ((.def_183 (not .def_182))) (let ((.def_184 (and A19 .def_129))) (let ((.def_185 (not .def_184))) (let ((.def_186 (or .def_185 .def_183))) (let ((.def_187 (= .def_29 A13))) (let ((.def_188 (not .def_187))) (let ((.def_189 (= .def_0 .def_65))) (let ((.def_190 (or .def_189 .def_188))) (let ((.def_191 (and .def_190 .def_186))) (let ((.def_192 (not .def_191))) (let ((.def_193 (and A19 A19))) (let ((.def_194 (and .def_129 A10))) (let ((.def_195 (and .def_194 .def_193))) (let ((.def_196 (not .def_195))) (let ((.def_197 (or A12 .def_41))) (let ((.def_198 (not .def_197))) (let ((.def_199 (or A1 .def_59))) (let ((.def_200 (and .def_199 .def_198))) (let ((.def_201 (not .def_200))) (let ((.def_202 (or .def_201 .def_196))) (let ((.def_203 (not .def_202))) (let ((.def_204 (or .def_203 .def_192))) (let ((.def_205 (not .def_204))) (let ((.def_206 (and .def_205 .def_181))) (let ((.def_207 (not .def_206))) (let ((.def_208 (and .def_207 .def_162))) (let ((.def_209 (not .def_208))) (let ((.def_210 (and .def_209 .def_113))) (let ((.def_211 (or .def_9 .def_84))) (let ((.def_212 (not .def_211))) (let ((.def_213 (and .def_46 A7))) (let ((.def_214 (or .def_213 .def_212))) (let ((.def_215 (and .def_129 .def_29))) (let ((.def_216 (not .def_215))) (let ((.def_217 (and .def_16 .def_71))) (let ((.def_218 (= .def_217 .def_216))) (let ((.def_219 (not .def_218))) (let ((.def_220 (and .def_219 .def_214))) (let ((.def_221 (not .def_220))) (let ((.def_222 (or A24 .def_16))) (let ((.def_223 (not .def_222))) (let ((.def_224 (not A13))) (let ((.def_225 (= .def_224 A16))) (let ((.def_226 (not .def_225))) (let ((.def_227 (or .def_226 .def_223))) (let ((.def_228 (not .def_227))) (let ((.def_229 (not .def_85))) (let ((.def_230 (or .def_29 A22))) (let ((.def_231 (or .def_230 .def_229))) (let ((.def_232 (or .def_231 .def_228))) (let ((.def_233 (not .def_232))) (let ((.def_234 (= .def_233 .def_221))) (let ((.def_235 (or .def_27 A14))) (let ((.def_236 (and A3 A21))) (let ((.def_237 (or .def_236 .def_235))) (let ((.def_238 (not .def_237))) (let ((.def_239 (or A23 A0))) (let ((.def_240 (not .def_239))) (let ((.def_241 (and A8 A10))) (let ((.def_242 (not .def_241))) (let ((.def_243 (and .def_242 .def_240))) (let ((.def_244 (not .def_243))) (let ((.def_245 (and .def_244 .def_238))) (let ((.def_246 (not .def_245))) (let ((.def_247 (or .def_59 .def_156))) (let ((.def_248 (not .def_247))) (let ((.def_249 (and A7 A22))) (let ((.def_250 (or .def_249 .def_248))) (let ((.def_251 (not .def_250))) (let ((.def_252 (or .def_6 A5))) (let ((.def_253 (not .def_252))) (let ((.def_254 (and .def_34 A7))) (let ((.def_255 (or .def_254 .def_253))) (let ((.def_256 (not .def_255))) (let ((.def_257 (and .def_256 .def_251))) (let ((.def_258 (and .def_257 .def_246))) (let ((.def_259 (not .def_258))) (let ((.def_260 (or .def_259 .def_234))) (let ((.def_261 (not .def_260))) (let ((.def_262 (or A19 A21))) (let ((.def_263 (or .def_34 A3))) (let ((.def_264 (not .def_263))) (let ((.def_265 (and .def_264 .def_262))) (let ((.def_266 (or A1 .def_42))) (let ((.def_267 (not .def_266))) (let ((.def_268 (or .def_224 .def_6))) (let ((.def_269 (or .def_268 .def_267))) (let ((.def_270 (and .def_269 .def_265))) (let ((.def_271 (not .def_270))) (let ((.def_272 (= A8 A18))) (let ((.def_273 (not .def_272))) (let ((.def_274 (and .def_65 .def_26))) (let ((.def_275 (not .def_274))) (let ((.def_276 (or .def_275 .def_273))) (let ((.def_277 (not .def_276))) (let ((.def_278 (not A18))) (let ((.def_279 (and .def_224 .def_278))) (let ((.def_280 (or .def_34 .def_6))) (let ((.def_281 (not .def_280))) (let ((.def_282 (and .def_281 .def_279))) (let ((.def_283 (not .def_282))) (let ((.def_284 (or .def_283 .def_277))) (let ((.def_285 (not .def_284))) (let ((.def_286 (or .def_285 .def_271))) (let ((.def_287 (not .def_286))) (let ((.def_288 (and A17 .def_59))) (let ((.def_289 (not .def_288))) (let ((.def_290 (or .def_71 A7))) (let ((.def_291 (or .def_290 .def_289))) (let ((.def_292 (not .def_291))) (let ((.def_293 (or .def_82 A12))) (let ((.def_294 (not .def_293))) (let ((.def_295 (and A15 .def_71))) (let ((.def_296 (or .def_295 .def_294))) (let ((.def_297 (not .def_296))) (let ((.def_298 (= .def_297 .def_292))) (let ((.def_299 (not .def_298))) (let ((.def_300 (or A9 .def_82))) (let ((.def_301 (or .def_102 .def_103))) (let ((.def_302 (not .def_301))) (let ((.def_303 (= .def_302 .def_300))) (let ((.def_304 (and A0 A11))) (let ((.def_305 (or .def_14 A1))) (let ((.def_306 (not .def_305))) (let ((.def_307 (and .def_306 .def_304))) (let ((.def_308 (not .def_307))) (let ((.def_309 (or .def_308 .def_303))) (let ((.def_310 (or .def_309 .def_299))) (let ((.def_311 (not .def_310))) (let ((.def_312 (= .def_311 .def_287))) (let ((.def_313 (or .def_312 .def_261))) (let ((.def_314 (not .def_313))) (let ((.def_315 (and .def_34 .def_0))) (let ((.def_316 (or .def_34 A23))) (let ((.def_317 (not .def_316))) (let ((.def_318 (or .def_317 .def_315))) (let ((.def_319 (not .def_318))) (let ((.def_320 (and .def_102 A0))) (let ((.def_321 (not .def_320))) (let ((.def_322 (or A3 .def_103))) (let ((.def_323 (not .def_322))) (let ((.def_324 (or .def_323 .def_321))) (let ((.def_325 (or .def_324 .def_319))) (let ((.def_326 (not .def_325))) (let ((.def_327 (= .def_26 .def_6))) (let ((.def_328 (or A14 .def_27))) (let ((.def_329 (not .def_328))) (let ((.def_330 (or .def_329 .def_327))) (let ((.def_331 (and .def_42 A0))) (let ((.def_332 (not .def_331))) (let ((.def_333 (and A19 A15))) (let ((.def_334 (or .def_333 .def_332))) (let ((.def_335 (not .def_334))) (let ((.def_336 (and .def_335 .def_330))) (let ((.def_337 (or .def_336 .def_326))) (let ((.def_338 (or .def_88 .def_46))) (let ((.def_339 (not .def_338))) (let ((.def_340 (or .def_339 .def_294))) (let ((.def_341 (and A14 .def_88))) (let ((.def_342 (or .def_278 A14))) (let ((.def_343 (not .def_342))) (let ((.def_344 (or .def_343 .def_341))) (let ((.def_345 (not .def_344))) (let ((.def_346 (or .def_345 .def_340))) (let ((.def_347 (not .def_346))) (let ((.def_348 (or A9 .def_129))) (let ((.def_349 (not .def_348))) (let ((.def_350 (= A10 .def_82))) (let ((.def_351 (not .def_350))) (let ((.def_352 (and .def_351 .def_349))) (let ((.def_353 (= .def_103 .def_42))) (let ((.def_354 (or .def_84 .def_14))) (let ((.def_355 (not .def_354))) (let ((.def_356 (and .def_355 .def_353))) (let ((.def_357 (not .def_356))) (let ((.def_358 (or .def_357 .def_352))) (let ((.def_359 (or .def_358 .def_347))) (let ((.def_360 (not .def_359))) (let ((.def_361 (or .def_360 .def_337))) (let ((.def_362 (or A24 A17))) (let ((.def_363 (not .def_362))) (let ((.def_364 (and .def_6 A8))) (let ((.def_365 (not .def_364))) (let ((.def_366 (and .def_365 .def_363))) (let ((.def_367 (not .def_366))) (let ((.def_368 (= .def_65 .def_27))) (let ((.def_369 (= .def_126 A11))) (let ((.def_370 (or .def_369 .def_368))) (let ((.def_371 (and .def_370 .def_367))) (let ((.def_372 (or A18 .def_59))) (let ((.def_373 (or .def_84 A20))) (let ((.def_374 (not .def_373))) (let ((.def_375 (or .def_374 .def_372))) (let ((.def_376 (not .def_375))) (let ((.def_377 (and .def_0 .def_41))) (let ((.def_378 (not .def_377))) (let ((.def_379 (or .def_103 A14))) (let ((.def_380 (not .def_379))) (let ((.def_381 (or .def_380 .def_378))) (let ((.def_382 (not .def_381))) (let ((.def_383 (and .def_382 .def_376))) (let ((.def_384 (or .def_383 .def_371))) (let ((.def_385 (not .def_384))) (let ((.def_386 (or .def_65 A15))) (let ((.def_387 (not .def_386))) (let ((.def_388 (and .def_0 A4))) (let ((.def_389 (or .def_388 .def_387))) (let ((.def_390 (not .def_389))) (let ((.def_391 (or .def_103 .def_29))) (let ((.def_392 (or .def_27 A22))) (let ((.def_393 (not .def_392))) (let ((.def_394 (= .def_393 .def_391))) (let ((.def_395 (not .def_394))) (let ((.def_396 (or .def_395 .def_390))) (let ((.def_397 (not .def_396))) (let ((.def_398 (or A0 .def_88))) (let ((.def_399 (or .def_88 .def_88))) (let ((.def_400 (not .def_399))) (let ((.def_401 (or .def_400 .def_398))) (let ((.def_402 (or A8 .def_103))) (let ((.def_403 (not .def_402))) (let ((.def_404 (and .def_84 .def_156))) (let ((.def_405 (or .def_404 .def_403))) (let ((.def_406 (= .def_405 .def_401))) (let ((.def_407 (and .def_406 .def_397))) (let ((.def_408 (= .def_407 .def_385))) (let ((.def_409 (not .def_408))) (let ((.def_410 (or .def_409 .def_361))) (let ((.def_411 (not .def_410))) (let ((.def_412 (or .def_411 .def_314))) (let ((.def_413 (and .def_412 .def_210))) .def_413)))))))))))))))))))))))))))))))))))))))))))))))))))))))))))))))))))))))))))))))))))))))))))))))))))))))))))))))))))))))))))))))))))))))))))))))))))))))))))))))))))))))))))))))))))))))))))))))))))))))))))))))))))))))))))))))))))))))))))))))))))))))))))))))))))))))))))))))))))))))))))))))))))))))))))))))))))))))))))))))))))))))))))))))))))))))))))))))))))))))))))))))))))))))))))))))))))))))))))))))))))))))))))))))
(check-sat)
